p cnf 729 81
-1 0
13 0
-19 0
-28 0
-37 0
-46 0
-55 0
-64 0
-73 0
-82 0
-91 0
-100 0
-109 0
119 0
-127 0
144 0
-145 0
-154 0
169 0
-172 0
-181 0
-190 0
-199 0
-208 0
-217 0
-226 0
-235 0
-244 0
-253 0
-262 0
-271 0
-280 0
-289 0
-298 0
310 0
-316 0
-325 0
339 0
-343 0
-352 0
-361 0
-370 0
380 0
395 0
-397 0
410 0
415 0
-424 0
-433 0
448 0
-451 0
-460 0
-469 0
-478 0
-487 0
-496 0
-505 0
514 0
-523 0
535 0
-541 0
-550 0
-559 0
576 0
-577 0
592 0
-595 0
-604 0
-613 0
627 0
-631 0
-640 0
-649 0
-658 0
-667 0
683 0
-685 0
-694 0
-703 0
-712 0
-721 0
